-133.0 7.0 4.0 10.0 5.0 0.0 9.0 6.0 1.0 2.0 6.0 4.0 1.0 5.0 4.0 1.0 6.0 2.0 7.0 1.0 8.0 1.0 5.0 3.0 9.0 4.0 3.0 7.0 4.0 6.0 0.0 0.0 2.0 
7.0 -170.0 4.0 6.0 5.0 4.0 7.0 5.0 2.0 3.0 6.0 1.0 7.0 2.0 5.0 7.0 10.0 2.0 6.0 7.0 8.0 10.0 4.0 1.0 5.0 8.0 6.0 9.0 4.0 4.0 7.0 8.0 0.0 
4.0 4.0 -164.0 2.0 2.0 6.0 1.0 7.0 6.0 8.0 10.0 4.0 3.0 0.0 10.0 9.0 2.0 1.0 3.0 5.0 4.0 0.0 10.0 7.0 7.0 0.0 6.0 10.0 10.0 9.0 8.0 4.0 2.0 
10.0 6.0 2.0 -179.0 5.0 1.0 2.0 6.0 10.0 4.0 9.0 9.0 1.0 1.0 5.0 10.0 10.0 9.0 4.0 1.0 3.0 7.0 10.0 7.0 8.0 0.0 1.0 1.0 8.0 7.0 10.0 2.0 10.0 
5.0 5.0 2.0 5.0 -161.0 5.0 1.0 10.0 2.0 9.0 6.0 6.0 8.0 2.0 8.0 8.0 2.0 4.0 7.0 5.0 0.0 3.0 8.0 10.0 9.0 6.0 6.0 5.0 0.0 1.0 6.0 6.0 1.0 
0.0 4.0 6.0 1.0 5.0 -143.0 9.0 6.0 5.0 1.0 3.0 9.0 3.0 1.0 5.0 6.0 9.0 1.0 5.0 1.0 3.0 9.0 7.0 5.0 7.0 5.0 7.0 0.0 9.0 1.0 4.0 2.0 4.0 
9.0 7.0 1.0 2.0 1.0 9.0 -132.0 7.0 1.0 1.0 9.0 3.0 0.0 4.0 5.0 1.0 9.0 1.0 2.0 3.0 2.0 6.0 5.0 1.0 9.0 0.0 9.0 5.0 1.0 8.0 4.0 5.0 2.0 
6.0 5.0 7.0 6.0 10.0 6.0 7.0 -185.0 6.0 1.0 3.0 3.0 6.0 8.0 4.0 0.0 9.0 10.0 5.0 2.0 10.0 8.0 6.0 6.0 2.0 10.0 2.0 5.0 10.0 5.0 10.0 0.0 7.0 
1.0 2.0 6.0 10.0 2.0 5.0 1.0 6.0 -148.0 2.0 5.0 7.0 7.0 2.0 1.0 4.0 2.0 4.0 4.0 4.0 10.0 5.0 6.0 3.0 4.0 7.0 8.0 10.0 0.0 5.0 8.0 5.0 2.0 
2.0 3.0 8.0 4.0 9.0 1.0 1.0 1.0 2.0 -165.0 10.0 0.0 0.0 6.0 8.0 1.0 3.0 8.0 3.0 9.0 9.0 6.0 4.0 1.0 10.0 6.0 8.0 9.0 5.0 9.0 9.0 6.0 4.0 
6.0 6.0 10.0 9.0 6.0 3.0 9.0 3.0 5.0 10.0 -196.0 6.0 5.0 8.0 5.0 10.0 7.0 2.0 2.0 10.0 3.0 8.0 10.0 6.0 2.0 4.0 7.0 4.0 5.0 8.0 4.0 8.0 5.0 
4.0 1.0 4.0 9.0 6.0 9.0 3.0 3.0 7.0 0.0 6.0 -143.0 4.0 6.0 4.0 6.0 3.0 7.0 8.0 2.0 4.0 5.0 2.0 1.0 4.0 4.0 6.0 9.0 8.0 0.0 0.0 5.0 3.0 
1.0 7.0 3.0 1.0 8.0 3.0 0.0 6.0 7.0 0.0 5.0 4.0 -139.0 4.0 1.0 3.0 9.0 1.0 7.0 3.0 10.0 7.0 9.0 5.0 7.0 5.0 2.0 1.0 2.0 3.0 4.0 1.0 10.0 
5.0 2.0 0.0 1.0 2.0 1.0 4.0 8.0 2.0 6.0 8.0 6.0 4.0 -159.0 3.0 9.0 0.0 10.0 3.0 10.0 7.0 2.0 6.0 5.0 5.0 3.0 10.0 10.0 3.0 8.0 5.0 4.0 7.0 
4.0 5.0 10.0 5.0 8.0 5.0 5.0 4.0 1.0 8.0 5.0 4.0 1.0 3.0 -166.0 9.0 3.0 8.0 6.0 3.0 6.0 5.0 10.0 6.0 8.0 4.0 1.0 0.0 7.0 0.0 6.0 6.0 10.0 
1.0 7.0 9.0 10.0 8.0 6.0 1.0 0.0 4.0 1.0 10.0 6.0 3.0 9.0 9.0 -180.0 1.0 10.0 8.0 2.0 4.0 2.0 1.0 8.0 7.0 8.0 3.0 9.0 3.0 4.0 8.0 8.0 10.0 
6.0 10.0 2.0 10.0 2.0 9.0 9.0 9.0 2.0 3.0 7.0 3.0 9.0 0.0 3.0 1.0 -164.0 6.0 0.0 9.0 6.0 4.0 5.0 0.0 9.0 9.0 3.0 7.0 9.0 4.0 5.0 0.0 3.0 
2.0 2.0 1.0 9.0 4.0 1.0 1.0 10.0 4.0 8.0 2.0 7.0 1.0 10.0 8.0 10.0 6.0 -165.0 9.0 1.0 1.0 6.0 4.0 8.0 2.0 8.0 6.0 8.0 3.0 6.0 7.0 3.0 7.0 
7.0 6.0 3.0 4.0 7.0 5.0 2.0 5.0 4.0 3.0 2.0 8.0 7.0 3.0 6.0 8.0 0.0 9.0 -163.0 0.0 10.0 6.0 6.0 7.0 6.0 4.0 4.0 8.0 3.0 3.0 7.0 6.0 4.0 
1.0 7.0 5.0 1.0 5.0 1.0 3.0 2.0 4.0 9.0 10.0 2.0 3.0 10.0 3.0 2.0 9.0 1.0 0.0 -135.0 1.0 1.0 0.0 4.0 4.0 9.0 9.0 0.0 6.0 9.0 6.0 2.0 6.0 
8.0 8.0 4.0 3.0 0.0 3.0 2.0 10.0 10.0 9.0 3.0 4.0 10.0 7.0 6.0 4.0 6.0 1.0 10.0 1.0 -162.0 1.0 7.0 10.0 2.0 2.0 7.0 5.0 0.0 3.0 9.0 7.0 0.0 
1.0 10.0 0.0 7.0 3.0 9.0 6.0 8.0 5.0 6.0 8.0 5.0 7.0 2.0 5.0 2.0 4.0 6.0 6.0 1.0 1.0 -157.0 0.0 9.0 3.0 9.0 9.0 0.0 4.0 2.0 9.0 10.0 0.0 
5.0 4.0 10.0 10.0 8.0 7.0 5.0 6.0 6.0 4.0 10.0 2.0 9.0 6.0 10.0 1.0 5.0 4.0 6.0 0.0 7.0 0.0 -168.0 8.0 3.0 2.0 0.0 7.0 9.0 8.0 5.0 1.0 0.0 
3.0 1.0 7.0 7.0 10.0 5.0 1.0 6.0 3.0 1.0 6.0 1.0 5.0 5.0 6.0 8.0 0.0 8.0 7.0 4.0 10.0 9.0 8.0 -166.0 7.0 4.0 10.0 3.0 5.0 2.0 9.0 2.0 3.0 
9.0 5.0 7.0 8.0 9.0 7.0 9.0 2.0 4.0 10.0 2.0 4.0 7.0 5.0 8.0 7.0 9.0 2.0 6.0 4.0 2.0 3.0 3.0 7.0 -176.0 8.0 1.0 6.0 8.0 8.0 1.0 5.0 0.0 
4.0 8.0 0.0 0.0 6.0 5.0 0.0 10.0 7.0 6.0 4.0 4.0 5.0 3.0 4.0 8.0 9.0 8.0 4.0 9.0 2.0 9.0 2.0 4.0 8.0 -176.0 8.0 8.0 3.0 8.0 7.0 8.0 5.0 
3.0 6.0 6.0 1.0 6.0 7.0 9.0 2.0 8.0 8.0 7.0 6.0 2.0 10.0 1.0 3.0 3.0 6.0 4.0 9.0 7.0 9.0 0.0 10.0 1.0 8.0 -175.0 7.0 7.0 7.0 3.0 5.0 4.0 
7.0 9.0 10.0 1.0 5.0 0.0 5.0 5.0 10.0 9.0 4.0 9.0 1.0 10.0 0.0 9.0 7.0 8.0 8.0 0.0 5.0 0.0 7.0 3.0 6.0 8.0 7.0 -184.0 2.0 9.0 8.0 3.0 9.0 
4.0 4.0 10.0 8.0 0.0 9.0 1.0 10.0 0.0 5.0 5.0 8.0 2.0 3.0 7.0 3.0 9.0 3.0 3.0 6.0 0.0 4.0 9.0 5.0 8.0 3.0 7.0 2.0 -160.0 5.0 6.0 9.0 2.0 
6.0 4.0 9.0 7.0 1.0 1.0 8.0 5.0 5.0 9.0 8.0 0.0 3.0 8.0 0.0 4.0 4.0 6.0 3.0 9.0 3.0 2.0 8.0 2.0 8.0 8.0 7.0 9.0 5.0 -162.0 0.0 0.0 10.0 
0.0 7.0 8.0 10.0 6.0 4.0 4.0 10.0 8.0 9.0 4.0 0.0 4.0 5.0 6.0 8.0 5.0 7.0 7.0 6.0 9.0 9.0 5.0 9.0 1.0 7.0 3.0 8.0 6.0 0.0 -188.0 6.0 7.0 
0.0 8.0 4.0 2.0 6.0 2.0 5.0 0.0 5.0 6.0 8.0 5.0 1.0 4.0 6.0 8.0 0.0 3.0 6.0 2.0 7.0 10.0 1.0 2.0 5.0 8.0 5.0 3.0 9.0 0.0 6.0 -146.0 9.0 
2.0 0.0 2.0 10.0 1.0 4.0 2.0 7.0 2.0 4.0 5.0 3.0 10.0 7.0 10.0 10.0 3.0 7.0 4.0 6.0 0.0 0.0 0.0 3.0 0.0 5.0 4.0 9.0 2.0 10.0 7.0 9.0 -148.0 

